NAME           C:\Bruker\Hvattum\knapsack\Problems\class1\100-5-19.mps
ROWS
 N  OBJ
 L  CONSTR1
 L  CONSTR2
 L  CONSTR3
 L  CONSTR4
 L  CONSTR5
COLUMNS
    INT0001   'MARKER'  'INTORG'
    X1        OBJ       504
    X1        CONSTR1   5
    X1        CONSTR2   100
    X1        CONSTR3   830
    X1        CONSTR4   285
    X1        CONSTR5   851
    X2        OBJ       800
    X2        CONSTR1   638
    X2        CONSTR2   606
    X2        CONSTR3   49
    X2        CONSTR4   459
    X2        CONSTR5   123
    X3        OBJ       801
    X3        CONSTR1   952
    X3        CONSTR2   436
    X3        CONSTR3   71
    X3        CONSTR4   23
    X3        CONSTR5   966
    X4        OBJ       1049
    X4        CONSTR1   501
    X4        CONSTR2   611
    X4        CONSTR3   741
    X4        CONSTR4   914
    X4        CONSTR5   976
    X5        OBJ       588
    X5        CONSTR1   926
    X5        CONSTR2   290
    X5        CONSTR3   353
    X5        CONSTR4   420
    X5        CONSTR5   668
    X6        OBJ       787
    X6        CONSTR1   267
    X6        CONSTR2   667
    X6        CONSTR3   338
    X6        CONSTR4   930
    X6        CONSTR5   128
    X7        OBJ       849
    X7        CONSTR1   878
    X7        CONSTR2   805
    X7        CONSTR3   495
    X7        CONSTR4   898
    X7        CONSTR5   927
    X8        OBJ       682
    X8        CONSTR1   459
    X8        CONSTR2   77
    X8        CONSTR3   356
    X8        CONSTR4   652
    X8        CONSTR5   929
    X9        OBJ       731
    X9        CONSTR1   826
    X9        CONSTR2   625
    X9        CONSTR3   344
    X9        CONSTR4   686
    X9        CONSTR5   215
    X10       OBJ       302
    X10       CONSTR1   99
    X10       CONSTR2   56
    X10       CONSTR3   868
    X10       CONSTR4   161
    X10       CONSTR5   162
    X11       OBJ       930
    X11       CONSTR1   201
    X11       CONSTR2   883
    X11       CONSTR3   394
    X11       CONSTR4   925
    X11       CONSTR5   347
    X12       OBJ       653
    X12       CONSTR1   870
    X12       CONSTR2   577
    X12       CONSTR3   151
    X12       CONSTR4   774
    X12       CONSTR5   344
    X13       OBJ       337
    X13       CONSTR1   468
    X13       CONSTR2   70
    X13       CONSTR3   736
    X13       CONSTR4   23
    X13       CONSTR5   374
    X14       OBJ       742
    X14       CONSTR1   782
    X14       CONSTR2   657
    X14       CONSTR3   551
    X14       CONSTR4   123
    X14       CONSTR5   901
    X15       OBJ       1080
    X15       CONSTR1   219
    X15       CONSTR2   806
    X15       CONSTR3   548
    X15       CONSTR4   982
    X15       CONSTR5   674
    X16       OBJ       709
    X16       CONSTR1   363
    X16       CONSTR2   224
    X16       CONSTR3   429
    X16       CONSTR4   81
    X16       CONSTR5   991
    X17       OBJ       593
    X17       CONSTR1   213
    X17       CONSTR2   500
    X17       CONSTR3   720
    X17       CONSTR4   522
    X17       CONSTR5   515
    X18       OBJ       816
    X18       CONSTR1   969
    X18       CONSTR2   92
    X18       CONSTR3   909
    X18       CONSTR4   964
    X18       CONSTR5   129
    X19       OBJ       1009
    X19       CONSTR1   925
    X19       CONSTR2   207
    X19       CONSTR3   515
    X19       CONSTR4   423
    X19       CONSTR5   563
    X20       OBJ       811
    X20       CONSTR1   848
    X20       CONSTR2   254
    X20       CONSTR3   14
    X20       CONSTR4   211
    X20       CONSTR5   558
    X21       OBJ       1132
    X21       CONSTR1   905
    X21       CONSTR2   368
    X21       CONSTR3   900
    X21       CONSTR4   164
    X21       CONSTR5   838
    X22       OBJ       894
    X22       CONSTR1   71
    X22       CONSTR2   801
    X22       CONSTR3   215
    X22       CONSTR4   312
    X22       CONSTR5   635
    X23       OBJ       987
    X23       CONSTR1   827
    X23       CONSTR2   249
    X23       CONSTR3   612
    X23       CONSTR4   667
    X23       CONSTR5   371
    X24       OBJ       768
    X24       CONSTR1   449
    X24       CONSTR2   985
    X24       CONSTR3   15
    X24       CONSTR4   867
    X24       CONSTR5   220
    X25       OBJ       660
    X25       CONSTR1   504
    X25       CONSTR2   94
    X25       CONSTR3   611
    X25       CONSTR4   381
    X25       CONSTR5   121
    X26       OBJ       498
    X26       CONSTR1   190
    X26       CONSTR2   142
    X26       CONSTR3   726
    X26       CONSTR4   755
    X26       CONSTR5   652
    X27       OBJ       670
    X27       CONSTR1   697
    X27       CONSTR2   122
    X27       CONSTR3   298
    X27       CONSTR4   293
    X27       CONSTR5   243
    X28       OBJ       1019
    X28       CONSTR1   984
    X28       CONSTR2   754
    X28       CONSTR3   427
    X28       CONSTR4   30
    X28       CONSTR5   966
    X29       OBJ       679
    X29       CONSTR1   702
    X29       CONSTR2   415
    X29       CONSTR3   473
    X29       CONSTR4   308
    X29       CONSTR5   508
    X30       OBJ       767
    X30       CONSTR1   729
    X30       CONSTR2   484
    X30       CONSTR3   62
    X30       CONSTR4   749
    X30       CONSTR5   44
    X31       OBJ       589
    X31       CONSTR1   424
    X31       CONSTR2   824
    X31       CONSTR3   85
    X31       CONSTR4   828
    X31       CONSTR5   132
    X32       OBJ       722
    X32       CONSTR1   85
    X32       CONSTR2   206
    X32       CONSTR3   910
    X32       CONSTR4   655
    X32       CONSTR5   232
    X33       OBJ       944
    X33       CONSTR1   306
    X33       CONSTR2   945
    X33       CONSTR3   451
    X33       CONSTR4   487
    X33       CONSTR5   367
    X34       OBJ       1076
    X34       CONSTR1   881
    X34       CONSTR2   779
    X34       CONSTR3   955
    X34       CONSTR4   386
    X34       CONSTR5   476
    X35       OBJ       1019
    X35       CONSTR1   518
    X35       CONSTR2   676
    X35       CONSTR3   891
    X35       CONSTR4   833
    X35       CONSTR5   524
    X36       OBJ       382
    X36       CONSTR1   91
    X36       CONSTR2   11
    X36       CONSTR3   241
    X36       CONSTR4   568
    X36       CONSTR5   607
    X37       OBJ       685
    X37       CONSTR1   647
    X37       CONSTR2   413
    X37       CONSTR3   326
    X37       CONSTR4   997
    X37       CONSTR5   827
    X38       OBJ       652
    X38       CONSTR1   698
    X38       CONSTR2   326
    X38       CONSTR3   72
    X38       CONSTR4   730
    X38       CONSTR5   414
    X39       OBJ       686
    X39       CONSTR1   353
    X39       CONSTR2   600
    X39       CONSTR3   634
    X39       CONSTR4   941
    X39       CONSTR5   894
    X40       OBJ       705
    X40       CONSTR1   487
    X40       CONSTR2   859
    X40       CONSTR3   83
    X40       CONSTR4   995
    X40       CONSTR5   202
    X41       OBJ       1009
    X41       CONSTR1   924
    X41       CONSTR2   375
    X41       CONSTR3   862
    X41       CONSTR4   213
    X41       CONSTR5   791
    X42       OBJ       858
    X42       CONSTR1   566
    X42       CONSTR2   942
    X42       CONSTR3   739
    X42       CONSTR4   477
    X42       CONSTR5   174
    X43       OBJ       807
    X43       CONSTR1   866
    X43       CONSTR2   87
    X43       CONSTR3   985
    X43       CONSTR4   914
    X43       CONSTR5   123
    X44       OBJ       1011
    X44       CONSTR1   566
    X44       CONSTR2   931
    X44       CONSTR3   126
    X44       CONSTR4   975
    X44       CONSTR5   404
    X45       OBJ       626
    X45       CONSTR1   307
    X45       CONSTR2   96
    X45       CONSTR3   559
    X45       CONSTR4   242
    X45       CONSTR5   356
    X46       OBJ       449
    X46       CONSTR1   564
    X46       CONSTR2   543
    X46       CONSTR3   34
    X46       CONSTR4   852
    X46       CONSTR5   85
    X47       OBJ       714
    X47       CONSTR1   105
    X47       CONSTR2   505
    X47       CONSTR3   785
    X47       CONSTR4   616
    X47       CONSTR5   602
    X48       OBJ       428
    X48       CONSTR1   405
    X48       CONSTR2   880
    X48       CONSTR3   429
    X48       CONSTR4   83
    X48       CONSTR5   202
    X49       OBJ       819
    X49       CONSTR1   772
    X49       CONSTR2   83
    X49       CONSTR3   822
    X49       CONSTR4   885
    X49       CONSTR5   119
    X50       OBJ       567
    X50       CONSTR1   62
    X50       CONSTR2   509
    X50       CONSTR3   228
    X50       CONSTR4   824
    X50       CONSTR5   89
    X51       OBJ       716
    X51       CONSTR1   20
    X51       CONSTR2   259
    X51       CONSTR3   343
    X51       CONSTR4   396
    X51       CONSTR5   400
    X52       OBJ       935
    X52       CONSTR1   824
    X52       CONSTR2   438
    X52       CONSTR3   231
    X52       CONSTR4   331
    X52       CONSTR5   804
    X53       OBJ       662
    X53       CONSTR1   551
    X53       CONSTR2   49
    X53       CONSTR3   837
    X53       CONSTR4   49
    X53       CONSTR5   313
    X54       OBJ       425
    X54       CONSTR1   894
    X54       CONSTR2   364
    X54       CONSTR3   119
    X54       CONSTR4   484
    X54       CONSTR5   214
    X55       OBJ       805
    X55       CONSTR1   679
    X55       CONSTR2   336
    X55       CONSTR3   31
    X55       CONSTR4   432
    X55       CONSTR5   456
    X56       OBJ       802
    X56       CONSTR1   640
    X56       CONSTR2   743
    X56       CONSTR3   557
    X56       CONSTR4   622
    X56       CONSTR5   910
    X57       OBJ       936
    X57       CONSTR1   916
    X57       CONSTR2   100
    X57       CONSTR3   720
    X57       CONSTR4   572
    X57       CONSTR5   849
    X58       OBJ       840
    X58       CONSTR1   974
    X58       CONSTR2   162
    X58       CONSTR3   37
    X58       CONSTR4   705
    X58       CONSTR5   931
    X59       OBJ       895
    X59       CONSTR1   370
    X59       CONSTR2   730
    X59       CONSTR3   639
    X59       CONSTR4   749
    X59       CONSTR5   169
    X60       OBJ       856
    X60       CONSTR1   741
    X60       CONSTR2   902
    X60       CONSTR3   586
    X60       CONSTR4   116
    X60       CONSTR5   708
    X61       OBJ       1036
    X61       CONSTR1   347
    X61       CONSTR2   614
    X61       CONSTR3   643
    X61       CONSTR4   922
    X61       CONSTR5   436
    X62       OBJ       889
    X62       CONSTR1   337
    X62       CONSTR2   646
    X62       CONSTR3   94
    X62       CONSTR4   525
    X62       CONSTR5   836
    X63       OBJ       1177
    X63       CONSTR1   613
    X63       CONSTR2   886
    X63       CONSTR3   993
    X63       CONSTR4   977
    X63       CONSTR5   818
    X64       OBJ       910
    X64       CONSTR1   302
    X64       CONSTR2   721
    X64       CONSTR3   815
    X64       CONSTR4   759
    X64       CONSTR5   759
    X65       OBJ       888
    X65       CONSTR1   682
    X65       CONSTR2   200
    X65       CONSTR3   640
    X65       CONSTR4   929
    X65       CONSTR5   434
    X66       OBJ       801
    X66       CONSTR1   157
    X66       CONSTR2   541
    X66       CONSTR3   20
    X66       CONSTR4   626
    X66       CONSTR5   291
    X67       OBJ       1038
    X67       CONSTR1   708
    X67       CONSTR2   531
    X67       CONSTR3   262
    X67       CONSTR4   440
    X67       CONSTR5   942
    X68       OBJ       628
    X68       CONSTR1   275
    X68       CONSTR2   64
    X68       CONSTR3   500
    X68       CONSTR4   433
    X68       CONSTR5   986
    X69       OBJ       786
    X69       CONSTR1   393
    X69       CONSTR2   553
    X69       CONSTR3   194
    X69       CONSTR4   437
    X69       CONSTR5   328
    X70       OBJ       485
    X70       CONSTR1   470
    X70       CONSTR2   24
    X70       CONSTR3   392
    X70       CONSTR4   456
    X70       CONSTR5   366
    X71       OBJ       895
    X71       CONSTR1   763
    X71       CONSTR2   224
    X71       CONSTR3   802
    X71       CONSTR4   555
    X71       CONSTR5   424
    X72       OBJ       459
    X72       CONSTR1   63
    X72       CONSTR2   192
    X72       CONSTR3   125
    X72       CONSTR4   527
    X72       CONSTR5   987
    X73       OBJ       599
    X73       CONSTR1   311
    X73       CONSTR2   189
    X73       CONSTR3   146
    X73       CONSTR4   169
    X73       CONSTR5   820
    X74       OBJ       858
    X74       CONSTR1   257
    X74       CONSTR2   606
    X74       CONSTR3   840
    X74       CONSTR4   210
    X74       CONSTR5   974
    X75       OBJ       313
    X75       CONSTR1   40
    X75       CONSTR2   336
    X75       CONSTR3   260
    X75       CONSTR4   203
    X75       CONSTR5   405
    X76       OBJ       739
    X76       CONSTR1   486
    X76       CONSTR2   734
    X76       CONSTR3   379
    X76       CONSTR4   376
    X76       CONSTR5   146
    X77       OBJ       836
    X77       CONSTR1   587
    X77       CONSTR2   385
    X77       CONSTR3   572
    X77       CONSTR4   82
    X77       CONSTR5   269
    X78       OBJ       463
    X78       CONSTR1   773
    X78       CONSTR2   35
    X78       CONSTR3   605
    X78       CONSTR4   209
    X78       CONSTR5   68
    X79       OBJ       846
    X79       CONSTR1   603
    X79       CONSTR2   400
    X79       CONSTR3   842
    X79       CONSTR4   813
    X79       CONSTR5   331
    X80       OBJ       425
    X80       CONSTR1   66
    X80       CONSTR2   13
    X80       CONSTR3   350
    X80       CONSTR4   728
    X80       CONSTR5   595
    X81       OBJ       857
    X81       CONSTR1   218
    X81       CONSTR2   359
    X81       CONSTR3   72
    X81       CONSTR4   644
    X81       CONSTR5   830
    X82       OBJ       994
    X82       CONSTR1   977
    X82       CONSTR2   910
    X82       CONSTR3   317
    X82       CONSTR4   443
    X82       CONSTR5   164
    X83       OBJ       543
    X83       CONSTR1   295
    X83       CONSTR2   202
    X83       CONSTR3   422
    X83       CONSTR4   539
    X83       CONSTR5   773
    X84       OBJ       1176
    X84       CONSTR1   590
    X84       CONSTR2   989
    X84       CONSTR3   858
    X84       CONSTR4   978
    X84       CONSTR5   427
    X85       OBJ       626
    X85       CONSTR1   603
    X85       CONSTR2   534
    X85       CONSTR3   842
    X85       CONSTR4   176
    X85       CONSTR5   694
    X86       OBJ       567
    X86       CONSTR1   285
    X86       CONSTR2   683
    X86       CONSTR3   502
    X86       CONSTR4   257
    X86       CONSTR5   71
    X87       OBJ       264
    X87       CONSTR1   277
    X87       CONSTR2   528
    X87       CONSTR3   2
    X87       CONSTR4   173
    X87       CONSTR5   244
    X88       OBJ       912
    X88       CONSTR1   447
    X88       CONSTR2   865
    X88       CONSTR3   929
    X88       CONSTR4   737
    X88       CONSTR5   669
    X89       OBJ       630
    X89       CONSTR1   844
    X89       CONSTR2   823
    X89       CONSTR3   33
    X89       CONSTR4   852
    X89       CONSTR5   41
    X90       OBJ       629
    X90       CONSTR1   802
    X90       CONSTR2   533
    X90       CONSTR3   742
    X90       CONSTR4   211
    X90       CONSTR5   490
    X91       OBJ       810
    X91       CONSTR1   173
    X91       CONSTR2   826
    X91       CONSTR3   797
    X91       CONSTR4   644
    X91       CONSTR5   685
    X92       OBJ       606
    X92       CONSTR1   157
    X92       CONSTR2   519
    X92       CONSTR3   666
    X92       CONSTR4   310
    X92       CONSTR5   113
    X93       OBJ       599
    X93       CONSTR1   98
    X93       CONSTR2   335
    X93       CONSTR3   831
    X93       CONSTR4   145
    X93       CONSTR5   884
    X94       OBJ       779
    X94       CONSTR1   856
    X94       CONSTR2   833
    X94       CONSTR3   418
    X94       CONSTR4   292
    X94       CONSTR5   104
    X95       OBJ       579
    X95       CONSTR1   243
    X95       CONSTR2   772
    X95       CONSTR3   163
    X95       CONSTR4   579
    X95       CONSTR5   269
    X96       OBJ       1006
    X96       CONSTR1   821
    X96       CONSTR2   902
    X96       CONSTR3   828
    X96       CONSTR4   807
    X96       CONSTR5   217
    X97       OBJ       810
    X97       CONSTR1   491
    X97       CONSTR2   839
    X97       CONSTR3   406
    X97       CONSTR4   371
    X97       CONSTR5   51
    X98       OBJ       671
    X98       CONSTR1   628
    X98       CONSTR2   19
    X98       CONSTR3   860
    X98       CONSTR4   518
    X98       CONSTR5   72
    X99       OBJ       945
    X99       CONSTR1   130
    X99       CONSTR2   256
    X99       CONSTR3   886
    X99       CONSTR4   564
    X99       CONSTR5   756
    X100      OBJ       749
    X100      CONSTR1   748
    X100      CONSTR2   561
    X100      CONSTR3   166
    X100      CONSTR4   3
    X100      CONSTR5   59
    INT0001   'MARKER'  'INTEND'
RHS
    RHS10001  CONSTR1   25810
    RHS10001  CONSTR2   23906
    RHS10001  CONSTR3   24141
    RHS10001  CONSTR4   26279
    RHS10001  CONSTR5   24071
BOUNDS
 BV BND       X1        .00
 BV BND       X2        .00
 BV BND       X3        .00
 BV BND       X4        .00
 BV BND       X5        .00
 BV BND       X6        .00
 BV BND       X7        .00
 BV BND       X8        .00
 BV BND       X9        .00
 BV BND       X10       .00
 BV BND       X11       .00
 BV BND       X12       .00
 BV BND       X13       .00
 BV BND       X14       .00
 BV BND       X15       .00
 BV BND       X16       .00
 BV BND       X17       .00
 BV BND       X18       .00
 BV BND       X19       .00
 BV BND       X20       .00
 BV BND       X21       .00
 BV BND       X22       .00
 BV BND       X23       .00
 BV BND       X24       .00
 BV BND       X25       .00
 BV BND       X26       .00
 BV BND       X27       .00
 BV BND       X28       .00
 BV BND       X29       .00
 BV BND       X30       .00
 BV BND       X31       .00
 BV BND       X32       .00
 BV BND       X33       .00
 BV BND       X34       .00
 BV BND       X35       .00
 BV BND       X36       .00
 BV BND       X37       .00
 BV BND       X38       .00
 BV BND       X39       .00
 BV BND       X40       .00
 BV BND       X41       .00
 BV BND       X42       .00
 BV BND       X43       .00
 BV BND       X44       .00
 BV BND       X45       .00
 BV BND       X46       .00
 BV BND       X47       .00
 BV BND       X48       .00
 BV BND       X49       .00
 BV BND       X50       .00
 BV BND       X51       .00
 BV BND       X52       .00
 BV BND       X53       .00
 BV BND       X54       .00
 BV BND       X55       .00
 BV BND       X56       .00
 BV BND       X57       .00
 BV BND       X58       .00
 BV BND       X59       .00
 BV BND       X60       .00
 BV BND       X61       .00
 BV BND       X62       .00
 BV BND       X63       .00
 BV BND       X64       .00
 BV BND       X65       .00
 BV BND       X66       .00
 BV BND       X67       .00
 BV BND       X68       .00
 BV BND       X69       .00
 BV BND       X70       .00
 BV BND       X71       .00
 BV BND       X72       .00
 BV BND       X73       .00
 BV BND       X74       .00
 BV BND       X75       .00
 BV BND       X76       .00
 BV BND       X77       .00
 BV BND       X78       .00
 BV BND       X79       .00
 BV BND       X80       .00
 BV BND       X81       .00
 BV BND       X82       .00
 BV BND       X83       .00
 BV BND       X84       .00
 BV BND       X85       .00
 BV BND       X86       .00
 BV BND       X87       .00
 BV BND       X88       .00
 BV BND       X89       .00
 BV BND       X90       .00
 BV BND       X91       .00
 BV BND       X92       .00
 BV BND       X93       .00
 BV BND       X94       .00
 BV BND       X95       .00
 BV BND       X96       .00
 BV BND       X97       .00
 BV BND       X98       .00
 BV BND       X99       .00
 BV BND       X100      .00
ENDATA
